c read Graph
c width = 187
c time = 187 ms
c width = 15
c time = 271 ms
c width = 14
c time = 416 ms
c width = 13
c time = 1443 ms
c width = 12
c time = 2889 ms
c width = 11
c time = 5881 ms
c width = 11
c time = 7969 ms
s td 226 12 242
b 1 21 22
b 2 221 222
b 3 1 2 3
b 4 1 3 24
b 5 17 19 42 43
b 6 17 41 42 43
b 7 17 41 43 65
b 8 41 63 64 65
b 9 178 200 201 224
b 10 178 201 202 224
b 11 178 202 224 226
b 12 17 39 40 41
b 13 178 179 180 202
b 14 202 203 204 226
b 15 3 5 24 26
b 16 5 7 24 26 28
b 17 7 9 24 26 28 30
b 18 9 24 26 28 30 32 34 58 82 106 108 131
b 19 24 26 28 30 32 33 34 58 82 106 108 131
b 20 24 26 28 30 31 32 33 58 82 106 108 131
b 21 24 26 28 29 30 31 33 58 82 106 108 131
b 22 24 26 27 28 29 31 33 58 82 106 108 131
b 23 24 25 26 27 29 31 33 58 82 106 108 131
b 24 24 25 27 29 31 33 46 58 82 106 108 131
b 25 25 27 29 31 33 46 48 58 82 106 108 131
b 26 27 29 31 33 46 48 50 58 82 106 108 131
b 27 29 31 33 46 48 50 52 58 82 106 108 131
b 28 31 33 46 48 50 52 54 58 82 106 108 131
b 29 33 46 48 50 52 54 56 58 82 106 108 131
b 30 46 48 50 52 54 56 58 80 82 106 108 131
b 31 46 48 50 52 54 56 78 80 82 106 108 131
b 32 46 48 50 52 53 54 78 80 82 106 108 131
b 33 46 48 50 51 52 53 78 80 82 106 108 131
b 34 46 48 49 50 51 53 78 80 82 106 108 131
b 35 46 47 48 49 51 53 78 80 82 106 108 131
b 36 46 47 49 51 53 68 78 80 82 106 108 131
b 37 47 49 51 53 68 70 78 80 82 106 108 131
b 38 49 51 53 68 70 72 78 80 82 106 108 131
b 39 51 53 68 70 72 74 78 80 82 106 108 131
b 40 53 68 70 72 74 76 78 80 82 106 108 131
b 41 68 70 72 74 76 78 80 81 82 106 108 131
b 42 68 70 72 74 76 78 80 81 102 106 108 131
b 43 68 70 72 74 76 78 81 100 102 106 108 131
b 44 68 70 72 74 75 76 81 100 102 106 108 131
b 45 68 70 72 74 75 81 98 100 102 106 108 131
b 46 68 70 72 74 81 98 100 102 104 106 108 131
b 47 68 70 72 74 98 100 102 104 106 108 130 131
b 48 68 70 72 74 98 100 102 104 106 128 130 131
b 49 68 70 72 74 98 100 102 103 104 128 130 131
b 50 68 70 72 74 98 100 101 102 103 128 130 131
b 51 68 70 72 74 98 100 101 103 124 128 130 131
b 52 68 70 72 74 98 100 103 124 126 128 130 131
b 53 68 70 72 74 98 100 124 126 128 130 131 152
b 54 68 70 72 74 98 100 124 126 128 131 150 152
b 55 68 70 72 74 98 100 124 125 126 131 150 152
b 56 68 70 72 74 98 100 124 125 131 148 150 152
b 57 68 70 72 74 98 100 124 131 148 150 152 175
b 58 131 148 150 152 153 175
b 59 68 70 72 74 98 100 124 148 150 152 174 175
b 60 68 70 72 74 98 100 124 148 150 172 174 175
b 61 148 149 150 172
b 62 68 70 72 74 98 100 122 124 148 172 174 175
b 63 68 70 72 74 98 122 124 146 148 172 174 175
b 64 68 70 72 74 98 121 122 146 148 172 174 175
b 65 68 70 72 74 98 121 146 147 148 172 174 175
b 66 68 70 72 74 98 121 145 146 147 172 174 175
b 67 68 70 72 74 98 121 145 147 170 172 174 175
b 68 68 70 72 74 98 121 145 170 172 174 175 196
b 69 68 70 72 74 98 121 145 170 171 172 175 196
b 70 68 70 72 74 98 121 145 169 170 171 175 196
b 71 68 70 72 74 98 121 145 169 171 175 194 196
b 72 68 70 72 74 98 121 145 169 175 194 196 197
b 73 68 70 72 74 98 121 145 169 194 195 196 197
b 74 68 70 72 74 98 121 145 169 194 195 197 218
b 75 68 70 72 74 98 121 145 169 194 197 218 219
b 76 68 70 72 74 98 121 145 169 194 218 219 240
b 77 68 70 72 74 98 121 145 169 194 216 218 240
b 78 68 70 72 74 98 121 145 169 192 194 216 240
b 79 68 70 72 74 98 121 145 168 169 192 216 240
b 80 68 70 72 74 98 121 144 145 168 192 216 240
b 81 68 70 72 74 98 120 121 144 168 192 216 240
b 82 68 70 72 74 98 120 144 168 192 215 216 240
b 83 68 70 72 74 96 98 120 144 168 192 215 240
b 84 68 70 72 94 96 98 120 144 168 192 215 240
b 85 68 70 94 96 98 118 120 144 168 192 215 240
b 86 68 70 94 118 120 144 168 191 192 215 240
b 87 68 70 94 118 120 144 168 190 191 214 215 240
b 88 68 70 94 118 120 144 168 190 214 215 236 240
b 89 215 236 238 240
b 90 68 70 94 118 120 142 144 168 190 214 236
b 91 68 70 94 118 142 144 164 168 188 190 214 236
b 92 68 70 94 118 142 164 188 190 210 214 232 236
b 93 188 190 210 212 214 232 236
b 94 212 213 214 236
b 95 188 189 190 212
b 96 210 212 232 234 236
b 97 210 211 212 234
b 98 142 144 164 166 168 188 190
b 99 142 143 144 166
b 100 164 165 166 188
b 101 166 167 168 190
b 102 118 119 120 142
b 103 94 95 96 118
b 104 70 71 72 94
b 105 72 73 74 96
b 106 96 97 98 120
b 107 192 193 194 216
b 108 216 217 218 240
b 109 172 173 174 196
b 110 122 123 124 146
b 111 98 99 100 122
b 112 150 151 152 174 175
b 113 126 127 128 150
b 114 128 129 130 152
b 115 104 105 106 128
b 116 106 107 108 130
b 117 76 77 78 100
b 118 78 79 80 102
b 119 54 55 56 78
b 120 56 57 58 80
b 121 9 13 34 58 82 106 108 131
b 122 9 11 13 34
b 123 13 34 36 58 82 106 108 131
b 124 34 35 36 58
b 125 13 36 58 60 82 106 108 131
b 126 58 59 60 82
b 127 13 36 60 82 84 106 108 131
b 128 82 83 84 106
b 129 13 36 60 84 87 108 131
b 130 87 108 109 131
b 131 13 36 60 63 84 87 108
b 132 63 84 85 87 108
b 133 63 85 86 87
b 134 13 36 38 60 63 84 87
b 135 36 37 38 60
b 136 13 38 39 60 63 84 87
b 137 13 17 38 39 63 87
b 138 13 15 17 38
b 139 17 39 63 65 87
b 140 17 39 41 63 65
b 141 39 60 61 63 84
b 142 39 61 62 63
b 143 112 114 136 138 162 164 188 210 232
b 144 68 70 92 94 118 142 164 188 210 232
b 145 68 92 94 116 118 142 164 188 210 232
b 146 68 92 112 114 138 162 164 188 210 232
b 147 68 92 114 116 138 162 164 188 210 232
b 148 68 92 116 118 138 142 162 164 188 210 232
b 149 68 69 70 92
b 150 92 93 94 116
b 151 68 91 92 112 114
b 152 68 90 91 112
b 153 114 115 116 138
b 154 112 113 114 136
b 155 112 136 138 162 164 186 188 210 232
b 156 112 136 138 162 186 208 210 232
b 157 208 209 210 232
b 158 112 136 138 162 184 186 208 232
b 159 112 136 138 160 162 184 208 232
b 160 112 136 160 184 206 208 228 232
b 161 112 136 160 182 184 206 228
b 162 182 183 184 206
b 163 112 136 158 160 182 206 228
b 164 112 136 156 158 182 206 228
b 165 156 158 182 204 206 228
b 166 156 158 180 182 204 228
b 167 180 181 182 204
b 168 156 180 204 226 228
b 169 156 180 202 204 226
b 170 156 178 180 202 226
b 171 156 157 158 180
b 172 204 205 206 228
b 173 112 135 136 156 158
b 174 112 134 135 156
b 175 158 159 160 182
b 176 206 208 228 230 232
b 177 206 207 208 230
b 178 160 161 162 184
b 179 136 137 138 160
b 180 184 185 186 208
b 181 162 163 164 186
b 182 186 187 188 210
b 183 116 118 138 140 142 162 164
b 184 140 141 142 164
b 185 116 117 118 140
b 186 138 139 140 162
b 187 238 239 240
b 188 236 237 238
b 189 234 235 236
b 190 232 233 234
b 191 230 231 232
b 192 228 229 230
b 193 226 227 228
b 194 224 225 226
b 195 219 240 241
b 196 219 241 242
b 197 199 200 224
b 198 199 223 224
b 199 199 222 223
b 200 197 219 220
b 201 177 178 200
b 202 175 197 198
b 203 155 156 178
b 204 153 175 176
b 205 133 134 156
b 206 131 153 154
b 207 111 112 134
b 208 109 131 132
b 209 89 90 112
b 210 87 109 110
b 211 67 68 90
b 212 65 87 88
b 213 45 46 68
b 214 43 65 66
b 215 23 24 46
b 216 19 21 44
b 217 19 43 44
b 218 19 20 21
b 219 17 18 19
b 220 15 16 17
b 221 13 14 15
b 222 11 12 13
b 223 9 10 11
b 224 7 8 9
b 225 5 6 7
b 226 3 4 5
1 216
2 199
3 4
4 15
5 219
5 217
5 6
6 7
7 214
7 140
8 140
9 201
9 197
9 10
10 11
11 194
11 170
12 140
13 170
14 169
15 226
15 16
16 225
16 17
17 224
17 18
18 121
18 19
19 20
20 21
21 22
22 23
23 24
24 215
24 25
25 26
26 27
27 28
28 29
29 30
30 120
30 31
31 119
31 32
32 33
33 34
34 35
35 36
36 213
36 37
37 38
38 39
39 40
40 41
41 42
42 118
42 43
43 117
43 44
44 45
45 46
46 47
47 116
47 48
48 115
48 49
49 50
50 51
51 52
52 53
53 114
53 54
54 113
54 55
55 56
56 57
57 59
57 58
58 206
58 204
59 60
59 112
60 62
60 61
62 111
62 63
63 110
63 64
64 65
65 66
66 67
67 68
68 109
68 69
69 70
70 71
71 72
72 202
72 73
73 74
74 75
75 200
75 76
76 195
76 77
77 108
77 78
78 107
78 79
79 80
80 81
81 82
82 83
83 105
83 106
83 84
84 104
84 85
85 103
85 86
86 87
87 88
88 90
88 89
89 188
89 187
90 102
90 91
91 98
91 92
92 144
92 93
93 96
93 95
93 94
96 190
96 189
96 97
98 101
98 100
98 99
121 122
121 123
122 223
122 222
123 125
123 124
125 127
125 126
127 128
127 129
129 130
129 131
130 210
130 208
131 132
131 134
132 133
134 135
134 136
136 141
136 137
137 138
137 139
138 221
138 220
139 212
139 140
141 142
143 154
143 155
143 146
144 149
144 145
145 150
145 148
146 151
146 147
147 153
147 148
148 183
151 152
152 211
152 209
155 181
155 182
155 156
156 157
156 158
158 180
158 159
159 179
159 178
159 160
160 176
160 161
161 162
161 163
163 175
163 164
164 173
164 165
165 172
165 166
166 171
166 167
166 168
168 193
168 169
169 170
170 203
173 174
174 207
174 205
176 192
176 191
176 177
183 185
183 186
183 184
195 196
197 198
198 199
216 218
216 217
